problem_generation/data/GISP/train/er_n=68_m=1375_p=0.60_SET2_setparam=100.00_alpha=0.50_796.lp
maximize
OBJ:100x0 + 100x1 + 100x2 + 100x3 + 100x4 + 100x5 + 100x6 + 100x7 + 100x8 + 100x9 + 100x10 + 100x11 + 100x12 + 100x13 + 100x14 + 100x15 + 100x16 + 100x17 + 100x18 + 100x19 + 100x20 + 100x21 + 100x22 + 100x23 + 100x24 + 100x25 + 100x26 + 100x27 + 100x28 + 100x29 + 100x30 + 100x31 + 100x32 + 100x33 + 100x34 + 100x35 + 100x36 + 100x37 + 100x38 + 100x39 + 100x40 + 100x41 + 100x42 + 100x43 + 100x44 + 100x45 + 100x46 + 100x47 + 100x48 + 100x49 + 100x50 + 100x51 + 100x52 + 100x53 + 100x54 + 100x55 + 100x56 + 100x57 + 100x58 + 100x59 + 100x60 + 100x61 + 100x62 + 100x63 + 100x64 + 100x65 + 100x66 + 100x67 - y36_53 - y47_62 - y26_39 - y17_58 - y18_35 - y29_32 - y18_44 - y8_9 - y9_63 - y48_54 - y0_14 - y11_14 - y29_50 - y40_50 - y0_23 - y6_57 - y11_23 - y29_59 - y10_45 - y33_47 - y44_47 - y2_41 - y2_50 - y2_59 - y43_60 - y22_37 - y3_33 - y14_33 - y13_65 - y15_16 - y7_12 - y18_21 - y36_57 - y28_53 - y5_60 - y29_36 - y9_67 - y29_45 - y48_58 - y21_41 - y6_52 - y10_31 - y25_29 - y33_42 - y25_38 - y2_45 - y3_10 - y22_23 - y2_54 - y13_51 - y14_37 - y16_56 - y16_65 - y47_52 - y17_48 - y9_44 - y17_57 - y5_64 - y17_66 - y29_49 - y40_49 - y21_54 - y10_17 - y6_65 - y10_26 - y12_63 - y2_40 - y51_54 - y2_49 - y14_23 - y43_59 - y24_55 - y7_11 - y36_47 - y17_43 - y28_52 - y36_65 - y47_65 - y28_61 - y9_57 - y50_58 - y21_31 - y50_67 - y6_42 - y61_67 - y21_49 - y39_48 - y39_57 - y2_17 - y31_53 - y54_55 - y2_26 - y25_28 - y10_39 - y2_35 - y23_67 - y4_63 - y14_18 - y32_54 - y24_50 - y35_50 - y13_59 - y17_29 - y36_42 - y5_36 - y28_47 - y6_10 - y5_54 - y50_53 - y5_63 - y58_66 - y27_60 - y50_62 - y61_62 - y21_35 - y30_65 - y42_67 - y39_52 - y2_12 - y10_25 - y39_61 - y23_53 - y2_30 - y4_49 - y23_62 - y51_53 - y13_36 - y35_36 - y4_67 - y32_49 - y43_49 - y1_43 - y43_58 - y35_54 - y24_63 - y35_63 - y46_60 - y28_33 - y38_65 - y49_65 - y28_42 - y6_14 - y42_44 - y27_55 - y50_57 - y50_66 - y61_66 - y30_60 - y11_56 - y20_34 - y0_65 - y31_43 - y2_16 - y12_48 - y31_61 - y13_22 - y32_35 - y43_44 - y16_27 - y24_40 - y1_47 - y24_49 - y35_49 - y16_45 - y5_8 - y35_58 - y5_17 - y46_55 - y38_51 - y46_64 - y5_35 - y9_33 - y26_67 - y27_41 - y30_46 - y30_55 - y42_57 - y11_51 - y8_64 - y20_29 - y42_66 - y0_60 - y39_42 - y12_34 - y2_11 - y4_30 - y23_43 - y20_56 - y4_39 - y31_65 - y23_61 - y53_62 - y4_57 - y32_39 - y16_31 - y56_67 - y16_40 - y16_49 - y5_12 - y46_50 - y9_10 - y17_23 - y46_59 - y57_59 - y49_55 - y9_28 - y26_62 - y7_58 - y27_36 - y19_41 - y42_43 - y27_54 - y0_37 - y50_56 - y19_50 - y42_52 - y27_63 - y11_46 - y8_59 - y20_24 - y12_29 - y23_29 - y20_42 - y4_25 - y31_42 - y20_51 - y31_51 - y12_47 - y23_47 - y1_19 - y13_21 - y45_53 - y24_30 - y64_66 - y16_26 - y22_60 - y1_37 - y45_62 - y3_65 - y38_41 - y46_54 - y49_50 - y15_57 - y26_57 - y49_59 - y7_53 - y18_53 - y15_66 - y26_66 - y8_27 - y19_27 - y30_36 - y11_32 - y30_54 - y23_24 - y23_33 - y12_42 - y23_42 - y1_23 - y22_55 - y16_30 - y34_66 - y3_60 - y14_60 - y46_49 - y7_39 - y26_52 - y38_54 - y18_48 - y15_61 - y7_57 - y27_35 - y0_18 - y18_66 - y8_31 - y19_40 - y0_45 - y41_64 - y33_60 - y44_60 - y23_37 - y10_67 - y1_9 - y2_63 - y25_65 - y53_65 - y3_46 - y45_61 - y56_61 - y14_55 - y14_64 - y7_25 - y15_38 - y18_34 - y38_49 - y26_56 - y0_4 - y0_22 - y11_22 - y29_58 - y30_44 - y52_59 - y22_45 - y34_47 - y3_41 - y56_65 - y7_29 - y18_29 - y59_67 - y7_47 - y8_21 - y11_17 - y8_30 - y48_66 - y6_60 - y11_26 - y63_64 - y41_45 - y33_41 - y10_48 - y33_50 - y33_59 - y10_66 - y22_31 - y2_62 - y25_64 - y37_38 - y37_47 - y3_63 - y15_28 - y26_28 - y7_24 - y26_37 - y18_42 - y8_16 - y48_52 - y11_12 - y29_48 - y10_34 - y4_9 - y52_58 - y2_39 - y44_54 - y3_13 - y22_26 - y34_37 - y3_31 - y32_67 - y22_53 - y3_49 - y36_46 - y7_19 - y15_32 - y26_32 - y47_64 - y7_37 - y29_34 - y9_65 - y0_7 - y6_41 - y48_56 - y6_50 - y40_52 - y21_48 - y29_61 - y2_25 - y2_34 - y51_57 - y2_52 - y14_17 - y25_54 - y22_39 - y13_58 - y13_67 - y36_41 - y47_50 - y18_23 - y9_42 - y59_61 - y6_36 - y6_45 - y29_47 - y29_56 - y20_65 - y25_31 - y10_42 - y33_44 - y25_40 - y51_52 - y3_12 - y22_25 - y32_57 - y43_57 - y13_62 - y16_67 - y28_32 - y36_45 - y36_54 - y9_37 - y55_67 - y6_22 - y5_66 - y6_31 - y9_64 - y50_65 - y29_42 - y21_38 - y6_49 - y40_51 - y21_47 - y10_28 - y39_64 - y62_66 - y20_60 - y25_26 - y54_62 - y25_35 - y2_42 - y24_39 - y3_16 - y13_48 - y3_25 - y14_25 - y16_44 - y1_55 - y24_57 - y32_61 - y13_66 - y9_23 - y17_36 - y5_43 - y6_8 - y36_58 - y17_54 - y6_17 - y28_63 - y58_64 - y21_24 - y6_35 - y27_67 - y10_14 - y31_46 - y39_59 - y2_19 - y54_57 - y12_51 - y23_51 - y2_28 - y54_66 - y13_25 - y4_56 - y13_34 - y43_47 - y16_39 - y32_65 - y13_61 - y24_61 - y16_66 - y46_67 - y36_44 - y5_38 - y3_56 - y28_40 - y5_47 - y17_49 - y28_49 - y6_21 - y9_54 - y50_55 - y6_30 - y27_62 - y19_67 - y11_63 - y2_5 - y10_18 - y54_61 - y32_42 - y24_38 - y35_38 - y32_51 - y43_51 - y1_45 - y13_47 - y9_13 - y16_61 - y5_24 - y38_58 - y49_58 - y9_31 - y5_51 - y42_46 - y8_53 - y27_66 - y30_62 - y42_64 - y0_58 - y0_67 - y11_67 - y23_32 - y39_49 - y2_18 - y54_56 - y20_63 - y53_60 - y4_64 - y32_46 - y34_65 - y35_42 - y16_38 - y1_49 - y35_51 - y46_48 - y1_58 - y46_57 - y49_53 - y5_28 - y28_30 - y46_66 - y9_26 - y57_66 - y6_11 - y27_61 - y42_59 - y20_22 - y0_53 - y19_66 - y20_40 - y4_23 - y39_53 - y12_36 - y4_32 - y23_45 - y20_58 - y31_58 - y12_54 - y23_54 - y13_28 - y35_37 - y22_67 - y37_65 - y16_42 - y46_61 - y15_64 - y27_38 - y8_34 - y19_34 - y19_52 - y11_48 - y8_61 - y20_26 - y60_62 - y31_35 - y20_44 - y4_27 - y23_40 - y13_23 - y53_59 - y16_19 - y37_51 - y56_64 - y49_52 - y15_59 - y26_59 - y38_61 - y7_55 - y7_64 - y19_29 - y0_25 - y19_38 - y0_34 - y8_47 - y30_47 - y11_43 - y30_56 - y20_21 - y20_30 - y12_26 - y33_58 - y12_35 - y23_35 - y33_67 - y44_67 - y1_25 - y37_46 - y22_66 - y3_62 - y14_62 - y15_27 - y37_64 - y15_36 - y15_45 - y15_54 - y8_15 - y26_63 - y7_59 - y11_20 - y0_29 - y63_67 - y30_42 - y11_38 - y30_51 - y4_17 - y52_66 - y4_26 - y10_60 - y33_62 - y22_34 - y22_43 - y1_20 - y37_50 - y37_59 - y15_22 - y7_18 - y14_66 - y15_40 - y38_42 - y7_36 - y26_49 - y18_45 - y8_10 - y15_58 - y26_58 - y18_54 - y8_28 - y19_28 - y48_64 - y30_37 - y0_33 - y6_67 - y11_33 - y11_42 - y10_46 - y41_61 - y52_61 - y2_51 - y33_66 - y1_6 - y2_60 - y25_62 - y34_40 - y37_45 - y7_13 - y14_61 - y59_60 - y36_67 - y47_67 - y17_63 - y0_1 - y18_49 - y29_46 - y8_23 - y48_59 - y6_53 - y30_32 - y0_28 - y6_62 - y41_56 - y10_50 - y33_52 - y44_52 - y22_33 - y34_35 - y2_64 - y66_67 - y3_47 - y14_56
 Subject to
C1: x0+x1-y0_1 <=1 
C2: x0+x2 <=1 
C3: x0+x4-y0_4 <=1 
C4: x0+x6 <=1 
C5: x0+x7-y0_7 <=1 
C6: x0+x10 <=1 
C7: x0+x14-y0_14 <=1 
C8: x0+x18-y0_18 <=1 
C9: x0+x19 <=1 
C10: x0+x20 <=1 
C11: x0+x21 <=1 
C12: x0+x22-y0_22 <=1 
C13: x0+x23-y0_23 <=1 
C14: x0+x25-y0_25 <=1 
C15: x0+x27 <=1 
C16: x0+x28-y0_28 <=1 
C17: x0+x29-y0_29 <=1 
C18: x0+x31 <=1 
C19: x0+x33-y0_33 <=1 
C20: x0+x34-y0_34 <=1 
C21: x0+x37-y0_37 <=1 
C22: x0+x38 <=1 
C23: x0+x39 <=1 
C24: x0+x41 <=1 
C25: x0+x44 <=1 
C26: x0+x45-y0_45 <=1 
C27: x0+x46 <=1 
C28: x0+x47 <=1 
C29: x0+x48 <=1 
C30: x0+x51 <=1 
C31: x0+x52 <=1 
C32: x0+x53-y0_53 <=1 
C33: x0+x58-y0_58 <=1 
C34: x0+x60-y0_60 <=1 
C35: x0+x65-y0_65 <=1 
C36: x0+x66 <=1 
C37: x0+x67-y0_67 <=1 
C38: x1+x2 <=1 
C39: x1+x6-y1_6 <=1 
C40: x1+x9-y1_9 <=1 
C41: x1+x10 <=1 
C42: x1+x15 <=1 
C43: x1+x17 <=1 
C44: x1+x19-y1_19 <=1 
C45: x1+x20-y1_20 <=1 
C46: x1+x21 <=1 
C47: x1+x23-y1_23 <=1 
C48: x1+x25-y1_25 <=1 
C49: x1+x28 <=1 
C50: x1+x32 <=1 
C51: x1+x33 <=1 
C52: x1+x37-y1_37 <=1 
C53: x1+x43-y1_43 <=1 
C54: x1+x45-y1_45 <=1 
C55: x1+x46 <=1 
C56: x1+x47-y1_47 <=1 
C57: x1+x48 <=1 
C58: x1+x49-y1_49 <=1 
C59: x1+x51 <=1 
C60: x1+x55-y1_55 <=1 
C61: x1+x57 <=1 
C62: x1+x58-y1_58 <=1 
C63: x1+x61 <=1 
C64: x1+x62 <=1 
C65: x1+x64 <=1 
C66: x2+x3 <=1 
C67: x2+x4 <=1 
C68: x2+x5-y2_5 <=1 
C69: x2+x6 <=1 
C70: x2+x7 <=1 
C71: x2+x8 <=1 
C72: x2+x9 <=1 
C73: x2+x11-y2_11 <=1 
C74: x2+x12-y2_12 <=1 
C75: x2+x14 <=1 
C76: x2+x15 <=1 
C77: x2+x16-y2_16 <=1 
C78: x2+x17-y2_17 <=1 
C79: x2+x18-y2_18 <=1 
C80: x2+x19-y2_19 <=1 
C81: x2+x20 <=1 
C82: x2+x21 <=1 
C83: x2+x24 <=1 
C84: x2+x25-y2_25 <=1 
C85: x2+x26-y2_26 <=1 
C86: x2+x28-y2_28 <=1 
C87: x2+x30-y2_30 <=1 
C88: x2+x31 <=1 
C89: x2+x32 <=1 
C90: x2+x34-y2_34 <=1 
C91: x2+x35-y2_35 <=1 
C92: x2+x37 <=1 
C93: x2+x39-y2_39 <=1 
C94: x2+x40-y2_40 <=1 
C95: x2+x41-y2_41 <=1 
C96: x2+x42-y2_42 <=1 
C97: x2+x44 <=1 
C98: x2+x45-y2_45 <=1 
C99: x2+x47 <=1 
C100: x2+x48 <=1 
C101: x2+x49-y2_49 <=1 
C102: x2+x50-y2_50 <=1 
C103: x2+x51-y2_51 <=1 
C104: x2+x52-y2_52 <=1 
C105: x2+x53 <=1 
C106: x2+x54-y2_54 <=1 
C107: x2+x55 <=1 
C108: x2+x59-y2_59 <=1 
C109: x2+x60-y2_60 <=1 
C110: x2+x61 <=1 
C111: x2+x62-y2_62 <=1 
C112: x2+x63-y2_63 <=1 
C113: x2+x64-y2_64 <=1 
C114: x2+x65 <=1 
C115: x2+x66 <=1 
C116: x2+x67 <=1 
C117: x3+x5 <=1 
C118: x3+x7 <=1 
C119: x3+x10-y3_10 <=1 
C120: x3+x11 <=1 
C121: x3+x12-y3_12 <=1 
C122: x3+x13-y3_13 <=1 
C123: x3+x14 <=1 
C124: x3+x16-y3_16 <=1 
C125: x3+x17 <=1 
C126: x3+x25-y3_25 <=1 
C127: x3+x28 <=1 
C128: x3+x29 <=1 
C129: x3+x31-y3_31 <=1 
C130: x3+x33-y3_33 <=1 
C131: x3+x35 <=1 
C132: x3+x36 <=1 
C133: x3+x37 <=1 
C134: x3+x39 <=1 
C135: x3+x41-y3_41 <=1 
C136: x3+x43 <=1 
C137: x3+x44 <=1 
C138: x3+x46-y3_46 <=1 
C139: x3+x47-y3_47 <=1 
C140: x3+x48 <=1 
C141: x3+x49-y3_49 <=1 
C142: x3+x50 <=1 
C143: x3+x51 <=1 
C144: x3+x56-y3_56 <=1 
C145: x3+x57 <=1 
C146: x3+x58 <=1 
C147: x3+x59 <=1 
C148: x3+x60-y3_60 <=1 
C149: x3+x62-y3_62 <=1 
C150: x3+x63-y3_63 <=1 
C151: x3+x65-y3_65 <=1 
C152: x4+x8 <=1 
C153: x4+x9-y4_9 <=1 
C154: x4+x10 <=1 
C155: x4+x12 <=1 
C156: x4+x15 <=1 
C157: x4+x17-y4_17 <=1 
C158: x4+x18 <=1 
C159: x4+x19 <=1 
C160: x4+x20 <=1 
C161: x4+x23-y4_23 <=1 
C162: x4+x24 <=1 
C163: x4+x25-y4_25 <=1 
C164: x4+x26-y4_26 <=1 
C165: x4+x27-y4_27 <=1 
C166: x4+x30-y4_30 <=1 
C167: x4+x32-y4_32 <=1 
C168: x4+x36 <=1 
C169: x4+x39-y4_39 <=1 
C170: x4+x40 <=1 
C171: x4+x42 <=1 
C172: x4+x46 <=1 
C173: x4+x47 <=1 
C174: x4+x48 <=1 
C175: x4+x49-y4_49 <=1 
C176: x4+x51 <=1 
C177: x4+x55 <=1 
C178: x4+x56-y4_56 <=1 
C179: x4+x57-y4_57 <=1 
C180: x4+x60 <=1 
C181: x4+x63-y4_63 <=1 
C182: x4+x64-y4_64 <=1 
C183: x4+x65 <=1 
C184: x4+x67-y4_67 <=1 
C185: x5+x7 <=1 
C186: x5+x8-y5_8 <=1 
C187: x5+x10 <=1 
C188: x5+x11 <=1 
C189: x5+x12-y5_12 <=1 
C190: x5+x14 <=1 
C191: x5+x16 <=1 
C192: x5+x17-y5_17 <=1 
C193: x5+x18 <=1 
C194: x5+x20 <=1 
C195: x5+x24-y5_24 <=1 
C196: x5+x26 <=1 
C197: x5+x27 <=1 
C198: x5+x28-y5_28 <=1 
C199: x5+x31 <=1 
C200: x5+x32 <=1 
C201: x5+x33 <=1 
C202: x5+x34 <=1 
C203: x5+x35-y5_35 <=1 
C204: x5+x36-y5_36 <=1 
C205: x5+x38-y5_38 <=1 
C206: x5+x39 <=1 
C207: x5+x40 <=1 
C208: x5+x43-y5_43 <=1 
C209: x5+x46 <=1 
C210: x5+x47-y5_47 <=1 
C211: x5+x51-y5_51 <=1 
C212: x5+x54-y5_54 <=1 
C213: x5+x56 <=1 
C214: x5+x57 <=1 
C215: x5+x60-y5_60 <=1 
C216: x5+x61 <=1 
C217: x5+x63-y5_63 <=1 
C218: x5+x64-y5_64 <=1 
C219: x5+x66-y5_66 <=1 
C220: x5+x67 <=1 
C221: x6+x7 <=1 
C222: x6+x8-y6_8 <=1 
C223: x6+x10-y6_10 <=1 
C224: x6+x11-y6_11 <=1 
C225: x6+x12 <=1 
C226: x6+x14-y6_14 <=1 
C227: x6+x15 <=1 
C228: x6+x16 <=1 
C229: x6+x17-y6_17 <=1 
C230: x6+x20 <=1 
C231: x6+x21-y6_21 <=1 
C232: x6+x22-y6_22 <=1 
C233: x6+x24 <=1 
C234: x6+x26 <=1 
C235: x6+x27 <=1 
C236: x6+x29 <=1 
C237: x6+x30-y6_30 <=1 
C238: x6+x31-y6_31 <=1 
C239: x6+x33 <=1 
C240: x6+x35-y6_35 <=1 
C241: x6+x36-y6_36 <=1 
C242: x6+x37 <=1 
C243: x6+x41-y6_41 <=1 
C244: x6+x42-y6_42 <=1 
C245: x6+x43 <=1 
C246: x6+x45-y6_45 <=1 
C247: x6+x46 <=1 
C248: x6+x47 <=1 
C249: x6+x48 <=1 
C250: x6+x49-y6_49 <=1 
C251: x6+x50-y6_50 <=1 
C252: x6+x52-y6_52 <=1 
C253: x6+x53-y6_53 <=1 
C254: x6+x54 <=1 
C255: x6+x55 <=1 
C256: x6+x57-y6_57 <=1 
C257: x6+x60-y6_60 <=1 
C258: x6+x62-y6_62 <=1 
C259: x6+x63 <=1 
C260: x6+x65-y6_65 <=1 
C261: x6+x67-y6_67 <=1 
C262: x7+x10 <=1 
C263: x7+x11-y7_11 <=1 
C264: x7+x12-y7_12 <=1 
C265: x7+x13-y7_13 <=1 
C266: x7+x15 <=1 
C267: x7+x16 <=1 
C268: x7+x18-y7_18 <=1 
C269: x7+x19-y7_19 <=1 
C270: x7+x21 <=1 
C271: x7+x22 <=1 
C272: x7+x24-y7_24 <=1 
C273: x7+x25-y7_25 <=1 
C274: x7+x26 <=1 
C275: x7+x27 <=1 
C276: x7+x28 <=1 
C277: x7+x29-y7_29 <=1 
C278: x7+x31 <=1 
C279: x7+x34 <=1 
C280: x7+x36-y7_36 <=1 
C281: x7+x37-y7_37 <=1 
C282: x7+x39-y7_39 <=1 
C283: x7+x40 <=1 
C284: x7+x43 <=1 
C285: x7+x47-y7_47 <=1 
C286: x7+x49 <=1 
C287: x7+x50 <=1 
C288: x7+x53-y7_53 <=1 
C289: x7+x55-y7_55 <=1 
C290: x7+x57-y7_57 <=1 
C291: x7+x58-y7_58 <=1 
C292: x7+x59-y7_59 <=1 
C293: x7+x62 <=1 
C294: x7+x64-y7_64 <=1 
C295: x7+x67 <=1 
C296: x8+x9-y8_9 <=1 
C297: x8+x10-y8_10 <=1 
C298: x8+x13 <=1 
C299: x8+x14 <=1 
C300: x8+x15-y8_15 <=1 
C301: x8+x16-y8_16 <=1 
C302: x8+x18 <=1 
C303: x8+x19 <=1 
C304: x8+x21-y8_21 <=1 
C305: x8+x23-y8_23 <=1 
C306: x8+x24 <=1 
C307: x8+x27-y8_27 <=1 
C308: x8+x28-y8_28 <=1 
C309: x8+x29 <=1 
C310: x8+x30-y8_30 <=1 
C311: x8+x31-y8_31 <=1 
C312: x8+x34-y8_34 <=1 
C313: x8+x35 <=1 
C314: x8+x36 <=1 
C315: x8+x37 <=1 
C316: x8+x38 <=1 
C317: x8+x39 <=1 
C318: x8+x42 <=1 
C319: x8+x44 <=1 
C320: x8+x45 <=1 
C321: x8+x46 <=1 
C322: x8+x47-y8_47 <=1 
C323: x8+x48 <=1 
C324: x8+x49 <=1 
C325: x8+x53-y8_53 <=1 
C326: x8+x57 <=1 
C327: x8+x59-y8_59 <=1 
C328: x8+x60 <=1 
C329: x8+x61-y8_61 <=1 
C330: x8+x63 <=1 
C331: x8+x64-y8_64 <=1 
C332: x8+x65 <=1 
C333: x9+x10-y9_10 <=1 
C334: x9+x11 <=1 
C335: x9+x12 <=1 
C336: x9+x13-y9_13 <=1 
C337: x9+x15 <=1 
C338: x9+x18 <=1 
C339: x9+x23-y9_23 <=1 
C340: x9+x24 <=1 
C341: x9+x26-y9_26 <=1 
C342: x9+x27 <=1 
C343: x9+x28-y9_28 <=1 
C344: x9+x29 <=1 
C345: x9+x30 <=1 
C346: x9+x31-y9_31 <=1 
C347: x9+x33-y9_33 <=1 
C348: x9+x35 <=1 
C349: x9+x36 <=1 
C350: x9+x37-y9_37 <=1 
C351: x9+x39 <=1 
C352: x9+x40 <=1 
C353: x9+x42-y9_42 <=1 
C354: x9+x44-y9_44 <=1 
C355: x9+x45 <=1 
C356: x9+x48 <=1 
C357: x9+x50 <=1 
C358: x9+x54-y9_54 <=1 
C359: x9+x56 <=1 
C360: x9+x57-y9_57 <=1 
C361: x9+x59 <=1 
C362: x9+x63-y9_63 <=1 
C363: x9+x64-y9_64 <=1 
C364: x9+x65-y9_65 <=1 
C365: x9+x67-y9_67 <=1 
C366: x10+x11 <=1 
C367: x10+x14-y10_14 <=1 
C368: x10+x15 <=1 
C369: x10+x17-y10_17 <=1 
C370: x10+x18-y10_18 <=1 
C371: x10+x21 <=1 
C372: x10+x24 <=1 
C373: x10+x25-y10_25 <=1 
C374: x10+x26-y10_26 <=1 
C375: x10+x27 <=1 
C376: x10+x28-y10_28 <=1 
C377: x10+x31-y10_31 <=1 
C378: x10+x34-y10_34 <=1 
C379: x10+x35 <=1 
C380: x10+x38 <=1 
C381: x10+x39-y10_39 <=1 
C382: x10+x40 <=1 
C383: x10+x42-y10_42 <=1 
C384: x10+x45-y10_45 <=1 
C385: x10+x46-y10_46 <=1 
C386: x10+x48-y10_48 <=1 
C387: x10+x49 <=1 
C388: x10+x50-y10_50 <=1 
C389: x10+x51 <=1 
C390: x10+x52 <=1 
C391: x10+x54 <=1 
C392: x10+x58 <=1 
C393: x10+x59 <=1 
C394: x10+x60-y10_60 <=1 
C395: x10+x61 <=1 
C396: x10+x66-y10_66 <=1 
C397: x10+x67-y10_67 <=1 
C398: x11+x12-y11_12 <=1 
C399: x11+x14-y11_14 <=1 
C400: x11+x15 <=1 
C401: x11+x17-y11_17 <=1 
C402: x11+x19 <=1 
C403: x11+x20-y11_20 <=1 
C404: x11+x22-y11_22 <=1 
C405: x11+x23-y11_23 <=1 
C406: x11+x24 <=1 
C407: x11+x26-y11_26 <=1 
C408: x11+x28 <=1 
C409: x11+x31 <=1 
C410: x11+x32-y11_32 <=1 
C411: x11+x33-y11_33 <=1 
C412: x11+x35 <=1 
C413: x11+x36 <=1 
C414: x11+x38-y11_38 <=1 
C415: x11+x41 <=1 
C416: x11+x42-y11_42 <=1 
C417: x11+x43-y11_43 <=1 
C418: x11+x44 <=1 
C419: x11+x45 <=1 
C420: x11+x46-y11_46 <=1 
C421: x11+x48-y11_48 <=1 
C422: x11+x50 <=1 
C423: x11+x51-y11_51 <=1 
C424: x11+x52 <=1 
C425: x11+x54 <=1 
C426: x11+x56-y11_56 <=1 
C427: x11+x58 <=1 
C428: x11+x59 <=1 
C429: x11+x62 <=1 
C430: x11+x63-y11_63 <=1 
C431: x11+x67-y11_67 <=1 
C432: x12+x14 <=1 
C433: x12+x17 <=1 
C434: x12+x19 <=1 
C435: x12+x26-y12_26 <=1 
C436: x12+x27 <=1 
C437: x12+x29-y12_29 <=1 
C438: x12+x32 <=1 
C439: x12+x33 <=1 
C440: x12+x34-y12_34 <=1 
C441: x12+x35-y12_35 <=1 
C442: x12+x36-y12_36 <=1 
C443: x12+x40 <=1 
C444: x12+x41 <=1 
C445: x12+x42-y12_42 <=1 
C446: x12+x43 <=1 
C447: x12+x44 <=1 
C448: x12+x47-y12_47 <=1 
C449: x12+x48-y12_48 <=1 
C450: x12+x49 <=1 
C451: x12+x51-y12_51 <=1 
C452: x12+x54-y12_54 <=1 
C453: x12+x56 <=1 
C454: x12+x58 <=1 
C455: x12+x61 <=1 
C456: x12+x63-y12_63 <=1 
C457: x12+x66 <=1 
C458: x12+x67 <=1 
C459: x13+x16 <=1 
C460: x13+x17 <=1 
C461: x13+x18 <=1 
C462: x13+x19 <=1 
C463: x13+x21-y13_21 <=1 
C464: x13+x22-y13_22 <=1 
C465: x13+x23-y13_23 <=1 
C466: x13+x24 <=1 
C467: x13+x25-y13_25 <=1 
C468: x13+x26 <=1 
C469: x13+x28-y13_28 <=1 
C470: x13+x29 <=1 
C471: x13+x34-y13_34 <=1 
C472: x13+x35 <=1 
C473: x13+x36-y13_36 <=1 
C474: x13+x38 <=1 
C475: x13+x40 <=1 
C476: x13+x41 <=1 
C477: x13+x44 <=1 
C478: x13+x45 <=1 
C479: x13+x46 <=1 
C480: x13+x47-y13_47 <=1 
C481: x13+x48-y13_48 <=1 
C482: x13+x50 <=1 
C483: x13+x51-y13_51 <=1 
C484: x13+x52 <=1 
C485: x13+x53 <=1 
C486: x13+x56 <=1 
C487: x13+x58-y13_58 <=1 
C488: x13+x59-y13_59 <=1 
C489: x13+x61-y13_61 <=1 
C490: x13+x62-y13_62 <=1 
C491: x13+x64 <=1 
C492: x13+x65-y13_65 <=1 
C493: x13+x66-y13_66 <=1 
C494: x13+x67-y13_67 <=1 
C495: x14+x15 <=1 
C496: x14+x16 <=1 
C497: x14+x17-y14_17 <=1 
C498: x14+x18-y14_18 <=1 
C499: x14+x23-y14_23 <=1 
C500: x14+x24 <=1 
C501: x14+x25-y14_25 <=1 
C502: x14+x26 <=1 
C503: x14+x27 <=1 
C504: x14+x32 <=1 
C505: x14+x33-y14_33 <=1 
C506: x14+x35 <=1 
C507: x14+x37-y14_37 <=1 
C508: x14+x38 <=1 
C509: x14+x39 <=1 
C510: x14+x44 <=1 
C511: x14+x46 <=1 
C512: x14+x48 <=1 
C513: x14+x49 <=1 
C514: x14+x52 <=1 
C515: x14+x53 <=1 
C516: x14+x55-y14_55 <=1 
C517: x14+x56-y14_56 <=1 
C518: x14+x58 <=1 
C519: x14+x60-y14_60 <=1 
C520: x14+x61-y14_61 <=1 
C521: x14+x62-y14_62 <=1 
C522: x14+x64-y14_64 <=1 
C523: x14+x66-y14_66 <=1 
C524: x14+x67 <=1 
C525: x15+x16-y15_16 <=1 
C526: x15+x17 <=1 
C527: x15+x19 <=1 
C528: x15+x20 <=1 
C529: x15+x21 <=1 
C530: x15+x22-y15_22 <=1 
C531: x15+x24 <=1 
C532: x15+x26 <=1 
C533: x15+x27-y15_27 <=1 
C534: x15+x28-y15_28 <=1 
C535: x15+x31 <=1 
C536: x15+x32-y15_32 <=1 
C537: x15+x33 <=1 
C538: x15+x34 <=1 
C539: x15+x36-y15_36 <=1 
C540: x15+x37 <=1 
C541: x15+x38-y15_38 <=1 
C542: x15+x39 <=1 
C543: x15+x40-y15_40 <=1 
C544: x15+x43 <=1 
C545: x15+x44 <=1 
C546: x15+x45-y15_45 <=1 
C547: x15+x48 <=1 
C548: x15+x52 <=1 
C549: x15+x54-y15_54 <=1 
C550: x15+x56 <=1 
C551: x15+x57-y15_57 <=1 
C552: x15+x58-y15_58 <=1 
C553: x15+x59-y15_59 <=1 
C554: x15+x60 <=1 
C555: x15+x61-y15_61 <=1 
C556: x15+x62 <=1 
C557: x15+x64-y15_64 <=1 
C558: x15+x65 <=1 
C559: x15+x66-y15_66 <=1 
C560: x15+x67 <=1 
C561: x16+x17 <=1 
C562: x16+x18 <=1 
C563: x16+x19-y16_19 <=1 
C564: x16+x20 <=1 
C565: x16+x21 <=1 
C566: x16+x25 <=1 
C567: x16+x26-y16_26 <=1 
C568: x16+x27-y16_27 <=1 
C569: x16+x28 <=1 
C570: x16+x30-y16_30 <=1 
C571: x16+x31-y16_31 <=1 
C572: x16+x35 <=1 
C573: x16+x37 <=1 
C574: x16+x38-y16_38 <=1 
C575: x16+x39-y16_39 <=1 
C576: x16+x40-y16_40 <=1 
C577: x16+x41 <=1 
C578: x16+x42-y16_42 <=1 
C579: x16+x44-y16_44 <=1 
C580: x16+x45-y16_45 <=1 
C581: x16+x46 <=1 
C582: x16+x49-y16_49 <=1 
C583: x16+x51 <=1 
C584: x16+x53 <=1 
C585: x16+x54 <=1 
C586: x16+x56-y16_56 <=1 
C587: x16+x58 <=1 
C588: x16+x59 <=1 
C589: x16+x61-y16_61 <=1 
C590: x16+x65-y16_65 <=1 
C591: x16+x66-y16_66 <=1 
C592: x16+x67-y16_67 <=1 
C593: x17+x19 <=1 
C594: x17+x23-y17_23 <=1 
C595: x17+x24 <=1 
C596: x17+x25 <=1 
C597: x17+x26 <=1 
C598: x17+x27 <=1 
C599: x17+x28 <=1 
C600: x17+x29-y17_29 <=1 
C601: x17+x30 <=1 
C602: x17+x32 <=1 
C603: x17+x36-y17_36 <=1 
C604: x17+x38 <=1 
C605: x17+x39 <=1 
C606: x17+x42 <=1 
C607: x17+x43-y17_43 <=1 
C608: x17+x47 <=1 
C609: x17+x48-y17_48 <=1 
C610: x17+x49-y17_49 <=1 
C611: x17+x53 <=1 
C612: x17+x54-y17_54 <=1 
C613: x17+x57-y17_57 <=1 
C614: x17+x58-y17_58 <=1 
C615: x17+x63-y17_63 <=1 
C616: x17+x64 <=1 
C617: x17+x65 <=1 
C618: x17+x66-y17_66 <=1 
C619: x18+x20 <=1 
C620: x18+x21-y18_21 <=1 
C621: x18+x23-y18_23 <=1 
C622: x18+x29-y18_29 <=1 
C623: x18+x31 <=1 
C624: x18+x34-y18_34 <=1 
C625: x18+x35-y18_35 <=1 
C626: x18+x42-y18_42 <=1 
C627: x18+x44-y18_44 <=1 
C628: x18+x45-y18_45 <=1 
C629: x18+x48-y18_48 <=1 
C630: x18+x49-y18_49 <=1 
C631: x18+x52 <=1 
C632: x18+x53-y18_53 <=1 
C633: x18+x54-y18_54 <=1 
C634: x18+x56 <=1 
C635: x18+x57 <=1 
C636: x18+x58 <=1 
C637: x18+x59 <=1 
C638: x18+x61 <=1 
C639: x18+x63 <=1 
C640: x18+x66-y18_66 <=1 
C641: x18+x67 <=1 
C642: x19+x20 <=1 
C643: x19+x22 <=1 
C644: x19+x25 <=1 
C645: x19+x27-y19_27 <=1 
C646: x19+x28-y19_28 <=1 
C647: x19+x29-y19_29 <=1 
C648: x19+x32 <=1 
C649: x19+x33 <=1 
C650: x19+x34-y19_34 <=1 
C651: x19+x35 <=1 
C652: x19+x36 <=1 
C653: x19+x38-y19_38 <=1 
C654: x19+x39 <=1 
C655: x19+x40-y19_40 <=1 
C656: x19+x41-y19_41 <=1 
C657: x19+x43 <=1 
C658: x19+x50-y19_50 <=1 
C659: x19+x51 <=1 
C660: x19+x52-y19_52 <=1 
C661: x19+x55 <=1 
C662: x19+x56 <=1 
C663: x19+x58 <=1 
C664: x19+x59 <=1 
C665: x19+x60 <=1 
C666: x19+x64 <=1 
C667: x19+x65 <=1 
C668: x19+x66-y19_66 <=1 
C669: x19+x67-y19_67 <=1 
C670: x20+x21-y20_21 <=1 
C671: x20+x22-y20_22 <=1 
C672: x20+x24-y20_24 <=1 
C673: x20+x26-y20_26 <=1 
C674: x20+x27 <=1 
C675: x20+x28 <=1 
C676: x20+x29-y20_29 <=1 
C677: x20+x30-y20_30 <=1 
C678: x20+x33 <=1 
C679: x20+x34-y20_34 <=1 
C680: x20+x35 <=1 
C681: x20+x36 <=1 
C682: x20+x38 <=1 
C683: x20+x39 <=1 
C684: x20+x40-y20_40 <=1 
C685: x20+x42-y20_42 <=1 
C686: x20+x44-y20_44 <=1 
C687: x20+x48 <=1 
C688: x20+x50 <=1 
C689: x20+x51-y20_51 <=1 
C690: x20+x52 <=1 
C691: x20+x53 <=1 
C692: x20+x54 <=1 
C693: x20+x56-y20_56 <=1 
C694: x20+x57 <=1 
C695: x20+x58-y20_58 <=1 
C696: x20+x59 <=1 
C697: x20+x60-y20_60 <=1 
C698: x20+x62 <=1 
C699: x20+x63-y20_63 <=1 
C700: x20+x65-y20_65 <=1 
C701: x20+x66 <=1 
C702: x21+x24-y21_24 <=1 
C703: x21+x27 <=1 
C704: x21+x29 <=1 
C705: x21+x31-y21_31 <=1 
C706: x21+x32 <=1 
C707: x21+x35-y21_35 <=1 
C708: x21+x36 <=1 
C709: x21+x37 <=1 
C710: x21+x38-y21_38 <=1 
C711: x21+x39 <=1 
C712: x21+x40 <=1 
C713: x21+x41-y21_41 <=1 
C714: x21+x42 <=1 
C715: x21+x43 <=1 
C716: x21+x44 <=1 
C717: x21+x47-y21_47 <=1 
C718: x21+x48-y21_48 <=1 
C719: x21+x49-y21_49 <=1 
C720: x21+x50 <=1 
C721: x21+x54-y21_54 <=1 
C722: x21+x56 <=1 
C723: x21+x59 <=1 
C724: x21+x60 <=1 
C725: x21+x61 <=1 
C726: x21+x62 <=1 
C727: x21+x64 <=1 
C728: x22+x23-y22_23 <=1 
C729: x22+x24 <=1 
C730: x22+x25-y22_25 <=1 
C731: x22+x26-y22_26 <=1 
C732: x22+x30 <=1 
C733: x22+x31-y22_31 <=1 
C734: x22+x33-y22_33 <=1 
C735: x22+x34-y22_34 <=1 
C736: x22+x35 <=1 
C737: x22+x37-y22_37 <=1 
C738: x22+x38 <=1 
C739: x22+x39-y22_39 <=1 
C740: x22+x43-y22_43 <=1 
C741: x22+x44 <=1 
C742: x22+x45-y22_45 <=1 
C743: x22+x46 <=1 
C744: x22+x47 <=1 
C745: x22+x51 <=1 
C746: x22+x53-y22_53 <=1 
C747: x22+x54 <=1 
C748: x22+x55-y22_55 <=1 
C749: x22+x56 <=1 
C750: x22+x57 <=1 
C751: x22+x58 <=1 
C752: x22+x60-y22_60 <=1 
C753: x22+x62 <=1 
C754: x22+x64 <=1 
C755: x22+x65 <=1 
C756: x22+x66-y22_66 <=1 
C757: x22+x67-y22_67 <=1 
C758: x23+x24-y23_24 <=1 
C759: x23+x28 <=1 
C760: x23+x29-y23_29 <=1 
C761: x23+x30 <=1 
C762: x23+x32-y23_32 <=1 
C763: x23+x33-y23_33 <=1 
C764: x23+x35-y23_35 <=1 
C765: x23+x37-y23_37 <=1 
C766: x23+x40-y23_40 <=1 
C767: x23+x42-y23_42 <=1 
C768: x23+x43-y23_43 <=1 
C769: x23+x45-y23_45 <=1 
C770: x23+x46 <=1 
C771: x23+x47-y23_47 <=1 
C772: x23+x49 <=1 
C773: x23+x51-y23_51 <=1 
C774: x23+x52 <=1 
C775: x23+x53-y23_53 <=1 
C776: x23+x54-y23_54 <=1 
C777: x23+x55 <=1 
C778: x23+x56 <=1 
C779: x23+x57 <=1 
C780: x23+x60 <=1 
C781: x23+x61-y23_61 <=1 
C782: x23+x62-y23_62 <=1 
C783: x23+x65 <=1 
C784: x23+x67-y23_67 <=1 
C785: x24+x25 <=1 
C786: x24+x26 <=1 
C787: x24+x27 <=1 
C788: x24+x30-y24_30 <=1 
C789: x24+x32 <=1 
C790: x24+x34 <=1 
C791: x24+x38-y24_38 <=1 
C792: x24+x39-y24_39 <=1 
C793: x24+x40-y24_40 <=1 
C794: x24+x41 <=1 
C795: x24+x43 <=1 
C796: x24+x44 <=1 
C797: x24+x45 <=1 
C798: x24+x46 <=1 
C799: x24+x49-y24_49 <=1 
C800: x24+x50-y24_50 <=1 
C801: x24+x51 <=1 
C802: x24+x53 <=1 
C803: x24+x55-y24_55 <=1 
C804: x24+x56 <=1 
C805: x24+x57-y24_57 <=1 
C806: x24+x59 <=1 
C807: x24+x60 <=1 
C808: x24+x61-y24_61 <=1 
C809: x24+x63-y24_63 <=1 
C810: x24+x64 <=1 
C811: x24+x66 <=1 
C812: x25+x26-y25_26 <=1 
C813: x25+x27 <=1 
C814: x25+x28-y25_28 <=1 
C815: x25+x29-y25_29 <=1 
C816: x25+x30 <=1 
C817: x25+x31-y25_31 <=1 
C818: x25+x33 <=1 
C819: x25+x34 <=1 
C820: x25+x35-y25_35 <=1 
C821: x25+x37 <=1 
C822: x25+x38-y25_38 <=1 
C823: x25+x39 <=1 
C824: x25+x40-y25_40 <=1 
C825: x25+x41 <=1 
C826: x25+x43 <=1 
C827: x25+x44 <=1 
C828: x25+x45 <=1 
C829: x25+x53 <=1 
C830: x25+x54-y25_54 <=1 
C831: x25+x55 <=1 
C832: x25+x57 <=1 
C833: x25+x62-y25_62 <=1 
C834: x25+x64-y25_64 <=1 
C835: x25+x65-y25_65 <=1 
C836: x25+x66 <=1 
C837: x26+x28-y26_28 <=1 
C838: x26+x32-y26_32 <=1 
C839: x26+x35 <=1 
C840: x26+x37-y26_37 <=1 
C841: x26+x38 <=1 
C842: x26+x39-y26_39 <=1 
C843: x26+x41 <=1 
C844: x26+x45 <=1 
C845: x26+x47 <=1 
C846: x26+x48 <=1 
C847: x26+x49-y26_49 <=1 
C848: x26+x52-y26_52 <=1 
C849: x26+x53 <=1 
C850: x26+x54 <=1 
C851: x26+x56-y26_56 <=1 
C852: x26+x57-y26_57 <=1 
C853: x26+x58-y26_58 <=1 
C854: x26+x59-y26_59 <=1 
C855: x26+x62-y26_62 <=1 
C856: x26+x63-y26_63 <=1 
C857: x26+x66-y26_66 <=1 
C858: x26+x67-y26_67 <=1 
C859: x27+x29 <=1 
C860: x27+x30 <=1 
C861: x27+x33 <=1 
C862: x27+x35-y27_35 <=1 
C863: x27+x36-y27_36 <=1 
C864: x27+x38-y27_38 <=1 
C865: x27+x39 <=1 
C866: x27+x41-y27_41 <=1 
C867: x27+x42 <=1 
C868: x27+x44 <=1 
C869: x27+x46 <=1 
C870: x27+x47 <=1 
C871: x27+x49 <=1 
C872: x27+x51 <=1 
C873: x27+x54-y27_54 <=1 
C874: x27+x55-y27_55 <=1 
C875: x27+x57 <=1 
C876: x27+x60-y27_60 <=1 
C877: x27+x61-y27_61 <=1 
C878: x27+x62-y27_62 <=1 
C879: x27+x63-y27_63 <=1 
C880: x27+x65 <=1 
C881: x27+x66-y27_66 <=1 
C882: x27+x67-y27_67 <=1 
C883: x28+x29 <=1 
C884: x28+x30-y28_30 <=1 
C885: x28+x31 <=1 
C886: x28+x32-y28_32 <=1 
C887: x28+x33-y28_33 <=1 
C888: x28+x39 <=1 
C889: x28+x40-y28_40 <=1 
C890: x28+x41 <=1 
C891: x28+x42-y28_42 <=1 
C892: x28+x44 <=1 
C893: x28+x46 <=1 
C894: x28+x47-y28_47 <=1 
C895: x28+x48 <=1 
C896: x28+x49-y28_49 <=1 
C897: x28+x52-y28_52 <=1 
C898: x28+x53-y28_53 <=1 
C899: x28+x54 <=1 
C900: x28+x57 <=1 
C901: x28+x59 <=1 
C902: x28+x60 <=1 
C903: x28+x61-y28_61 <=1 
C904: x28+x63-y28_63 <=1 
C905: x28+x66 <=1 
C906: x28+x67 <=1 
C907: x29+x31 <=1 
C908: x29+x32-y29_32 <=1 
C909: x29+x33 <=1 
C910: x29+x34-y29_34 <=1 
C911: x29+x35 <=1 
C912: x29+x36-y29_36 <=1 
C913: x29+x37 <=1 
C914: x29+x39 <=1 
C915: x29+x40 <=1 
C916: x29+x42-y29_42 <=1 
C917: x29+x44 <=1 
C918: x29+x45-y29_45 <=1 
C919: x29+x46-y29_46 <=1 
C920: x29+x47-y29_47 <=1 
C921: x29+x48-y29_48 <=1 
C922: x29+x49-y29_49 <=1 
C923: x29+x50-y29_50 <=1 
C924: x29+x51 <=1 
C925: x29+x52 <=1 
C926: x29+x56-y29_56 <=1 
C927: x29+x58-y29_58 <=1 
C928: x29+x59-y29_59 <=1 
C929: x29+x61-y29_61 <=1 
C930: x29+x66 <=1 
C931: x29+x67 <=1 
C932: x30+x32-y30_32 <=1 
C933: x30+x33 <=1 
C934: x30+x36-y30_36 <=1 
C935: x30+x37-y30_37 <=1 
C936: x30+x42-y30_42 <=1 
C937: x30+x44-y30_44 <=1 
C938: x30+x45 <=1 
C939: x30+x46-y30_46 <=1 
C940: x30+x47-y30_47 <=1 
C941: x30+x48 <=1 
C942: x30+x50 <=1 
C943: x30+x51-y30_51 <=1 
C944: x30+x52 <=1 
C945: x30+x53 <=1 
C946: x30+x54-y30_54 <=1 
C947: x30+x55-y30_55 <=1 
C948: x30+x56-y30_56 <=1 
C949: x30+x59 <=1 
C950: x30+x60-y30_60 <=1 
C951: x30+x62-y30_62 <=1 
C952: x30+x64 <=1 
C953: x30+x65-y30_65 <=1 
C954: x30+x66 <=1 
C955: x30+x67 <=1 
C956: x31+x33 <=1 
C957: x31+x34 <=1 
C958: x31+x35-y31_35 <=1 
C959: x31+x36 <=1 
C960: x31+x38 <=1 
C961: x31+x39 <=1 
C962: x31+x40 <=1 
C963: x31+x41 <=1 
C964: x31+x42-y31_42 <=1 
C965: x31+x43-y31_43 <=1 
C966: x31+x44 <=1 
C967: x31+x46-y31_46 <=1 
C968: x31+x47 <=1 
C969: x31+x48 <=1 
C970: x31+x49 <=1 
C971: x31+x50 <=1 
C972: x31+x51-y31_51 <=1 
C973: x31+x53-y31_53 <=1 
C974: x31+x55 <=1 
C975: x31+x58-y31_58 <=1 
C976: x31+x59 <=1 
C977: x31+x61-y31_61 <=1 
C978: x31+x62 <=1 
C979: x31+x63 <=1 
C980: x31+x64 <=1 
C981: x31+x65-y31_65 <=1 
C982: x31+x66 <=1 
C983: x31+x67 <=1 
C984: x32+x34 <=1 
C985: x32+x35-y32_35 <=1 
C986: x32+x36 <=1 
C987: x32+x39-y32_39 <=1 
C988: x32+x41 <=1 
C989: x32+x42-y32_42 <=1 
C990: x32+x44 <=1 
C991: x32+x46-y32_46 <=1 
C992: x32+x47 <=1 
C993: x32+x49-y32_49 <=1 
C994: x32+x50 <=1 
C995: x32+x51-y32_51 <=1 
C996: x32+x52 <=1 
C997: x32+x53 <=1 
C998: x32+x54-y32_54 <=1 
C999: x32+x55 <=1 
C1000: x32+x56 <=1 
C1001: x32+x57-y32_57 <=1 
C1002: x32+x59 <=1 
C1003: x32+x60 <=1 
C1004: x32+x61-y32_61 <=1 
C1005: x32+x62 <=1 
C1006: x32+x64 <=1 
C1007: x32+x65-y32_65 <=1 
C1008: x32+x67-y32_67 <=1 
C1009: x33+x35 <=1 
C1010: x33+x38 <=1 
C1011: x33+x41-y33_41 <=1 
C1012: x33+x42-y33_42 <=1 
C1013: x33+x44-y33_44 <=1 
C1014: x33+x45 <=1 
C1015: x33+x47-y33_47 <=1 
C1016: x33+x48 <=1 
C1017: x33+x50-y33_50 <=1 
C1018: x33+x52-y33_52 <=1 
C1019: x33+x53 <=1 
C1020: x33+x57 <=1 
C1021: x33+x58-y33_58 <=1 
C1022: x33+x59-y33_59 <=1 
C1023: x33+x60-y33_60 <=1 
C1024: x33+x62-y33_62 <=1 
C1025: x33+x64 <=1 
C1026: x33+x66-y33_66 <=1 
C1027: x33+x67-y33_67 <=1 
C1028: x34+x35-y34_35 <=1 
C1029: x34+x37-y34_37 <=1 
C1030: x34+x38 <=1 
C1031: x34+x40-y34_40 <=1 
C1032: x34+x41 <=1 
C1033: x34+x42 <=1 
C1034: x34+x43 <=1 
C1035: x34+x44 <=1 
C1036: x34+x45 <=1 
C1037: x34+x47-y34_47 <=1 
C1038: x34+x48 <=1 
C1039: x34+x50 <=1 
C1040: x34+x59 <=1 
C1041: x34+x60 <=1 
C1042: x34+x61 <=1 
C1043: x34+x64 <=1 
C1044: x34+x65-y34_65 <=1 
C1045: x34+x66-y34_66 <=1 
C1046: x34+x67 <=1 
C1047: x35+x36-y35_36 <=1 
C1048: x35+x37-y35_37 <=1 
C1049: x35+x38-y35_38 <=1 
C1050: x35+x39 <=1 
C1051: x35+x40 <=1 
C1052: x35+x42-y35_42 <=1 
C1053: x35+x45 <=1 
C1054: x35+x47 <=1 
C1055: x35+x49-y35_49 <=1 
C1056: x35+x50-y35_50 <=1 
C1057: x35+x51-y35_51 <=1 
C1058: x35+x53 <=1 
C1059: x35+x54-y35_54 <=1 
C1060: x35+x55 <=1 
C1061: x35+x56 <=1 
C1062: x35+x57 <=1 
C1063: x35+x58-y35_58 <=1 
C1064: x35+x59 <=1 
C1065: x35+x60 <=1 
C1066: x35+x62 <=1 
C1067: x35+x63-y35_63 <=1 
C1068: x35+x64 <=1 
C1069: x36+x37 <=1 
C1070: x36+x38 <=1 
C1071: x36+x39 <=1 
C1072: x36+x40 <=1 
C1073: x36+x41-y36_41 <=1 
C1074: x36+x42-y36_42 <=1 
C1075: x36+x44-y36_44 <=1 
C1076: x36+x45-y36_45 <=1 
C1077: x36+x46-y36_46 <=1 
C1078: x36+x47-y36_47 <=1 
C1079: x36+x48 <=1 
C1080: x36+x49 <=1 
C1081: x36+x52 <=1 
C1082: x36+x53-y36_53 <=1 
C1083: x36+x54-y36_54 <=1 
C1084: x36+x57-y36_57 <=1 
C1085: x36+x58-y36_58 <=1 
C1086: x36+x59 <=1 
C1087: x36+x62 <=1 
C1088: x36+x63 <=1 
C1089: x36+x64 <=1 
C1090: x36+x65-y36_65 <=1 
C1091: x36+x67-y36_67 <=1 
C1092: x37+x38-y37_38 <=1 
C1093: x37+x39 <=1 
C1094: x37+x40 <=1 
C1095: x37+x42 <=1 
C1096: x37+x43 <=1 
C1097: x37+x45-y37_45 <=1 
C1098: x37+x46-y37_46 <=1 
C1099: x37+x47-y37_47 <=1 
C1100: x37+x48 <=1 
C1101: x37+x49 <=1 
C1102: x37+x50-y37_50 <=1 
C1103: x37+x51-y37_51 <=1 
C1104: x37+x52 <=1 
C1105: x37+x54 <=1 
C1106: x37+x57 <=1 
C1107: x37+x58 <=1 
C1108: x37+x59-y37_59 <=1 
C1109: x37+x60 <=1 
C1110: x37+x61 <=1 
C1111: x37+x64-y37_64 <=1 
C1112: x37+x65-y37_65 <=1 
C1113: x37+x66 <=1 
C1114: x37+x67 <=1 
C1115: x38+x39 <=1 
C1116: x38+x41-y38_41 <=1 
C1117: x38+x42-y38_42 <=1 
C1118: x38+x43 <=1 
C1119: x38+x47 <=1 
C1120: x38+x48 <=1 
C1121: x38+x49-y38_49 <=1 
C1122: x38+x50 <=1 
C1123: x38+x51-y38_51 <=1 
C1124: x38+x54-y38_54 <=1 
C1125: x38+x55 <=1 
C1126: x38+x58-y38_58 <=1 
C1127: x38+x61-y38_61 <=1 
C1128: x38+x62 <=1 
C1129: x38+x63 <=1 
C1130: x38+x64 <=1 
C1131: x38+x65-y38_65 <=1 
C1132: x38+x66 <=1 
C1133: x38+x67 <=1 
C1134: x39+x42-y39_42 <=1 
C1135: x39+x45 <=1 
C1136: x39+x46 <=1 
C1137: x39+x48-y39_48 <=1 
C1138: x39+x49-y39_49 <=1 
C1139: x39+x50 <=1 
C1140: x39+x52-y39_52 <=1 
C1141: x39+x53-y39_53 <=1 
C1142: x39+x57-y39_57 <=1 
C1143: x39+x59-y39_59 <=1 
C1144: x39+x60 <=1 
C1145: x39+x61-y39_61 <=1 
C1146: x39+x64-y39_64 <=1 
C1147: x39+x66 <=1 
C1148: x40+x41 <=1 
C1149: x40+x43 <=1 
C1150: x40+x47 <=1 
C1151: x40+x49-y40_49 <=1 
C1152: x40+x50-y40_50 <=1 
C1153: x40+x51-y40_51 <=1 
C1154: x40+x52-y40_52 <=1 
C1155: x40+x55 <=1 
C1156: x40+x64 <=1 
C1157: x40+x65 <=1 
C1158: x40+x67 <=1 
C1159: x41+x42 <=1 
C1160: x41+x45-y41_45 <=1 
C1161: x41+x47 <=1 
C1162: x41+x48 <=1 
C1163: x41+x51 <=1 
C1164: x41+x52 <=1 
C1165: x41+x53 <=1 
C1166: x41+x54 <=1 
C1167: x41+x56-y41_56 <=1 
C1168: x41+x57 <=1 
C1169: x41+x58 <=1 
C1170: x41+x61-y41_61 <=1 
C1171: x41+x64-y41_64 <=1 
C1172: x41+x65 <=1 
C1173: x42+x43-y42_43 <=1 
C1174: x42+x44-y42_44 <=1 
C1175: x42+x45 <=1 
C1176: x42+x46-y42_46 <=1 
C1177: x42+x52-y42_52 <=1 
C1178: x42+x53 <=1 
C1179: x42+x57-y42_57 <=1 
C1180: x42+x59-y42_59 <=1 
C1181: x42+x61 <=1 
C1182: x42+x62 <=1 
C1183: x42+x64-y42_64 <=1 
C1184: x42+x66-y42_66 <=1 
C1185: x42+x67-y42_67 <=1 
C1186: x43+x44-y43_44 <=1 
C1187: x43+x47-y43_47 <=1 
C1188: x43+x49-y43_49 <=1 
C1189: x43+x51-y43_51 <=1 
C1190: x43+x52 <=1 
C1191: x43+x53 <=1 
C1192: x43+x55 <=1 
C1193: x43+x56 <=1 
C1194: x43+x57-y43_57 <=1 
C1195: x43+x58-y43_58 <=1 
C1196: x43+x59-y43_59 <=1 
C1197: x43+x60-y43_60 <=1 
C1198: x43+x63 <=1 
C1199: x43+x65 <=1 
C1200: x43+x67 <=1 
C1201: x44+x47-y44_47 <=1 
C1202: x44+x51 <=1 
C1203: x44+x52-y44_52 <=1 
C1204: x44+x54-y44_54 <=1 
C1205: x44+x57 <=1 
C1206: x44+x58 <=1 
C1207: x44+x60-y44_60 <=1 
C1208: x44+x62 <=1 
C1209: x44+x67-y44_67 <=1 
C1210: x45+x46 <=1 
C1211: x45+x47 <=1 
C1212: x45+x48 <=1 
C1213: x45+x53-y45_53 <=1 
C1214: x45+x55 <=1 
C1215: x45+x56 <=1 
C1216: x45+x57 <=1 
C1217: x45+x60 <=1 
C1218: x45+x61-y45_61 <=1 
C1219: x45+x62-y45_62 <=1 
C1220: x45+x63 <=1 
C1221: x45+x66 <=1 
C1222: x46+x48-y46_48 <=1 
C1223: x46+x49-y46_49 <=1 
C1224: x46+x50-y46_50 <=1 
C1225: x46+x51 <=1 
C1226: x46+x53 <=1 
C1227: x46+x54-y46_54 <=1 
C1228: x46+x55-y46_55 <=1 
C1229: x46+x57-y46_57 <=1 
C1230: x46+x59-y46_59 <=1 
C1231: x46+x60-y46_60 <=1 
C1232: x46+x61-y46_61 <=1 
C1233: x46+x63 <=1 
C1234: x46+x64-y46_64 <=1 
C1235: x46+x65 <=1 
C1236: x46+x66-y46_66 <=1 
C1237: x46+x67-y46_67 <=1 
C1238: x47+x48 <=1 
C1239: x47+x49 <=1 
C1240: x47+x50-y47_50 <=1 
C1241: x47+x52-y47_52 <=1 
C1242: x47+x53 <=1 
C1243: x47+x60 <=1 
C1244: x47+x61 <=1 
C1245: x47+x62-y47_62 <=1 
C1246: x47+x64-y47_64 <=1 
C1247: x47+x65-y47_65 <=1 
C1248: x47+x67-y47_67 <=1 
C1249: x48+x49 <=1 
C1250: x48+x50 <=1 
C1251: x48+x52-y48_52 <=1 
C1252: x48+x53 <=1 
C1253: x48+x54-y48_54 <=1 
C1254: x48+x55 <=1 
C1255: x48+x56-y48_56 <=1 
C1256: x48+x57 <=1 
C1257: x48+x58-y48_58 <=1 
C1258: x48+x59-y48_59 <=1 
C1259: x48+x64-y48_64 <=1 
C1260: x48+x66-y48_66 <=1 
C1261: x48+x67 <=1 
C1262: x49+x50-y49_50 <=1 
C1263: x49+x51 <=1 
C1264: x49+x52-y49_52 <=1 
C1265: x49+x53-y49_53 <=1 
C1266: x49+x55-y49_55 <=1 
C1267: x49+x56 <=1 
C1268: x49+x58-y49_58 <=1 
C1269: x49+x59-y49_59 <=1 
C1270: x49+x60 <=1 
C1271: x49+x63 <=1 
C1272: x49+x64 <=1 
C1273: x49+x65-y49_65 <=1 
C1274: x49+x66 <=1 
C1275: x49+x67 <=1 
C1276: x50+x51 <=1 
C1277: x50+x53-y50_53 <=1 
C1278: x50+x55-y50_55 <=1 
C1279: x50+x56-y50_56 <=1 
C1280: x50+x57-y50_57 <=1 
C1281: x50+x58-y50_58 <=1 
C1282: x50+x59 <=1 
C1283: x50+x60 <=1 
C1284: x50+x61 <=1 
C1285: x50+x62-y50_62 <=1 
C1286: x50+x63 <=1 
C1287: x50+x65-y50_65 <=1 
C1288: x50+x66-y50_66 <=1 
C1289: x50+x67-y50_67 <=1 
C1290: x51+x52-y51_52 <=1 
C1291: x51+x53-y51_53 <=1 
C1292: x51+x54-y51_54 <=1 
C1293: x51+x55 <=1 
C1294: x51+x56 <=1 
C1295: x51+x57-y51_57 <=1 
C1296: x51+x62 <=1 
C1297: x51+x65 <=1 
C1298: x52+x55 <=1 
C1299: x52+x56 <=1 
C1300: x52+x57 <=1 
C1301: x52+x58-y52_58 <=1 
C1302: x52+x59-y52_59 <=1 
C1303: x52+x61-y52_61 <=1 
C1304: x52+x65 <=1 
C1305: x52+x66-y52_66 <=1 
C1306: x53+x54 <=1 
C1307: x53+x55 <=1 
C1308: x53+x56 <=1 
C1309: x53+x57 <=1 
C1310: x53+x59-y53_59 <=1 
C1311: x53+x60-y53_60 <=1 
C1312: x53+x62-y53_62 <=1 
C1313: x53+x63 <=1 
C1314: x53+x64 <=1 
C1315: x53+x65-y53_65 <=1 
C1316: x54+x55-y54_55 <=1 
C1317: x54+x56-y54_56 <=1 
C1318: x54+x57-y54_57 <=1 
C1319: x54+x61-y54_61 <=1 
C1320: x54+x62-y54_62 <=1 
C1321: x54+x64 <=1 
C1322: x54+x66-y54_66 <=1 
C1323: x55+x56 <=1 
C1324: x55+x59 <=1 
C1325: x55+x62 <=1 
C1326: x55+x63 <=1 
C1327: x55+x65 <=1 
C1328: x55+x67-y55_67 <=1 
C1329: x56+x58 <=1 
C1330: x56+x60 <=1 
C1331: x56+x61-y56_61 <=1 
C1332: x56+x63 <=1 
C1333: x56+x64-y56_64 <=1 
C1334: x56+x65-y56_65 <=1 
C1335: x56+x66 <=1 
C1336: x56+x67-y56_67 <=1 
C1337: x57+x58 <=1 
C1338: x57+x59-y57_59 <=1 
C1339: x57+x60 <=1 
C1340: x57+x61 <=1 
C1341: x57+x62 <=1 
C1342: x57+x65 <=1 
C1343: x57+x66-y57_66 <=1 
C1344: x57+x67 <=1 
C1345: x58+x59 <=1 
C1346: x58+x61 <=1 
C1347: x58+x62 <=1 
C1348: x58+x63 <=1 
C1349: x58+x64-y58_64 <=1 
C1350: x58+x65 <=1 
C1351: x58+x66-y58_66 <=1 
C1352: x59+x60-y59_60 <=1 
C1353: x59+x61-y59_61 <=1 
C1354: x59+x62 <=1 
C1355: x59+x63 <=1 
C1356: x59+x64 <=1 
C1357: x59+x67-y59_67 <=1 
C1358: x60+x61 <=1 
C1359: x60+x62-y60_62 <=1 
C1360: x60+x64 <=1 
C1361: x60+x65 <=1 
C1362: x60+x66 <=1 
C1363: x60+x67 <=1 
C1364: x61+x62-y61_62 <=1 
C1365: x61+x63 <=1 
C1366: x61+x66-y61_66 <=1 
C1367: x61+x67-y61_67 <=1 
C1368: x62+x64 <=1 
C1369: x62+x66-y62_66 <=1 
C1370: x63+x64-y63_64 <=1 
C1371: x63+x65 <=1 
C1372: x63+x66 <=1 
C1373: x63+x67-y63_67 <=1 
C1374: x64+x66-y64_66 <=1 
C1375: x66+x67-y66_67 <=1 

binary
x0
x1
x2
x3
x4
x5
x6
x7
x8
x9
x10
x11
x12
x13
x14
x15
x16
x17
x18
x19
x20
x21
x22
x23
x24
x25
x26
x27
x28
x29
x30
x31
x32
x33
x34
x35
x36
x37
x38
x39
x40
x41
x42
x43
x44
x45
x46
x47
x48
x49
x50
x51
x52
x53
x54
x55
x56
x57
x58
x59
x60
x61
x62
x63
x64
x65
x66
x67
