problem_generation/data/GISP/train/er_n=68_m=1375_p=0.60_SET2_setparam=100.00_alpha=0.50_796.sol
objective value:                                 1174
x0                                                  1 	(obj:100)
x1                                                  1 	(obj:100)
x7                                                  1 	(obj:100)
x12                                                 1 	(obj:100)
x18                                                 1 	(obj:100)
x24                                                 1 	(obj:100)
x30                                                 1 	(obj:100)
x35                                                 1 	(obj:100)
x36                                                 1 	(obj:100)
x42                                                 1 	(obj:100)
x54                                                 1 	(obj:100)
x65                                                 1 	(obj:100)
y18_35                                              1 	(obj:-1)
y7_12                                               1 	(obj:-1)
y36_65                                              1 	(obj:-1)
y36_42                                              1 	(obj:-1)
y30_65                                              1 	(obj:-1)
y35_36                                              1 	(obj:-1)
y35_54                                              1 	(obj:-1)
y0_65                                               1 	(obj:-1)
y24_30                                              1 	(obj:-1)
y30_36                                              1 	(obj:-1)
y30_54                                              1 	(obj:-1)
y12_42                                              1 	(obj:-1)
y0_18                                               1 	(obj:-1)
y7_24                                               1 	(obj:-1)
y18_42                                              1 	(obj:-1)
y0_7                                                1 	(obj:-1)
y36_54                                              1 	(obj:-1)
y35_42                                              1 	(obj:-1)
y12_36                                              1 	(obj:-1)
y12_54                                              1 	(obj:-1)
y12_35                                              1 	(obj:-1)
y30_42                                              1 	(obj:-1)
y7_18                                               1 	(obj:-1)
y7_36                                               1 	(obj:-1)
y18_54                                              1 	(obj:-1)
y0_1                                                1 	(obj:-1)
